WARNING: for repeatability, setting FPU to use double precision
============================[ Problem Statistics ]=============================
|                                                                             |
|  Number of variables:           100                                         |
|  Number of clauses:             449                                         |
|  Parse time:                   0.00 s                                       |
|  Simplification time:          0.00 s                                       |
|                                                                             |
============================[ Search Statistics ]==============================
| Conflicts |          ORIGINAL         |          LEARNT          | Progress |
|           |    Vars  Clauses Literals |    Limit  Clauses Lit/Cl |          |
===============================================================================
|       100 |     100      449     1347 |      164      100      7 |  0.010 % |
|       250 |     100      449     1347 |      181      163      7 |  0.010 % |
===============================================================================
restarts              : 3
conflicts             : 392            (96291 /sec)
decisions             : 480            (0.00 % random) (117907 /sec)
propagations          : 8988           (2207811 /sec)
conflict literals     : 2796           (18.05 % deleted)
Memory used           : 13.00 MB
CPU time              : 0.004071 s

SATISFIABLE
